p cnf 115 194               
1 55 0
2 17 0
1 17 0
-2 -1 -17 0
17 -31 0
-1 18 0
-2 18 0
1 2 -18 0
18 19 0
3 19 0
-18 -3 -19 0
19 -31 0
-3 20 0
-18 20 0
3 18 -20 0
20 21 0
4 21 0
-20 -4 -21 0
21 -31 0
-4 22 0
-20 22 0
4 20 -22 0
22 23 0
5 23 0
-22 -5 -23 0
23 -31 0
-5 24 0
-22 24 0
5 22 -24 0
24 25 0
6 25 0
-24 -6 -25 0
25 -31 0
-6 26 0
-24 26 0
6 24 -26 0
26 27 0
7 27 0
-26 -7 -27 0
27 -31 0
-7 28 0
-26 28 0
7 26 -28 0
28 29 0
8 29 0
-28 -8 -29 0
29 -31 0
-8 30 0
-28 30 0
8 28 -30 0
30 -31 0
-17 -19 -21 -23 -25 -27 -29 -30 31 0
-31 -1 47 0
31 -9 47 0
-1 -9 47 0
-47 55 0
2 56 0
-31 -2 48 0
31 -10 48 0
-2 -10 48 0
-48 56 0
3 57 0
-31 -3 49 0
31 -11 49 0
-3 -11 49 0
-49 57 0
4 58 0
-31 -4 50 0
31 -12 50 0
-4 -12 50 0
-50 58 0
5 59 0
-31 -5 51 0
31 -13 51 0
-5 -13 51 0
-51 59 0
6 60 0
-31 -6 52 0
31 -14 52 0
-6 -14 52 0
-52 60 0
7 61 0
-31 -7 53 0
31 -15 53 0
-7 -15 53 0
-53 61 0
8 62 0
-31 -8 54 0
31 -16 54 0
-8 -16 54 0
-54 62 0
-55 -56 -57 -58 -59 -60 -61 -62 63 0
-63 -64 0
31 -64 0
-10 -9 -32 0
32 -46 0
-9 33 0
-10 33 0
9 10 -33 0
-33 -11 -34 0
34 -46 0
-11 35 0
-33 35 0
11 33 -35 0
-35 -12 -36 0
36 -46 0
-12 37 0
-35 37 0
12 35 -37 0
-37 -13 -38 0
38 -46 0
-13 39 0
-37 39 0
13 37 -39 0
-39 -14 -40 0
40 -46 0
-14 41 0
-39 41 0
14 39 -41 0
-41 -15 -42 0
42 -46 0
-15 43 0
-41 43 0
15 41 -43 0
-43 -16 -44 0
44 -46 0
16 43 -45 0
45 -46 0
46 -64 0
-1 2 -65 0
65 -71 0
-1 -2 66 0
1 2 66 0
-2 2 66 0
-9 10 -67 0
-66 67 -68 0
68 -71 0
71 -114 0
-2 3 -72 0
72 -78 0
-2 -3 73 0
2 3 73 0
-3 3 73 0
-10 11 -74 0
-73 74 -75 0
75 -78 0
78 -114 0
-3 4 -79 0
79 -85 0
-3 -4 80 0
3 4 80 0
-4 4 80 0
-11 12 -81 0
-80 81 -82 0
82 -85 0
85 -114 0
-4 5 -86 0
86 -92 0
-4 -5 87 0
4 5 87 0
-5 5 87 0
-12 13 -88 0
-87 88 -89 0
89 -92 0
92 -114 0
-5 6 -93 0
93 -99 0
-5 -6 94 0
5 6 94 0
-6 6 94 0
-13 14 -95 0
-94 95 -96 0
96 -99 0
99 -114 0
-6 7 -100 0
100 -106 0
-6 -7 101 0
6 7 101 0
-7 7 101 0
-14 15 -102 0
-101 102 -103 0
103 -106 0
106 -114 0
-7 8 -107 0
107 -113 0
-7 -8 108 0
7 8 108 0
-8 8 108 0
-15 16 -109 0
-108 109 -110 0
110 -113 0
113 -114 0
64 0
114 0
